2795.13
0 1 4 3 2 5 10 14 17 0
0 9 8 7 27 30 28 32 11 16 23 21 19 18 13 12 15 0
0 66 72 22 20 37 35 38 25 31 29 33 36 50 42 44 40 43 46 57 0
0 61 67 71 73 24 26 58 51 55 47 0
0 60 59 39 41 34 0
0 69 62 45 52 48 49 0
0 56 53 54 63 0
0 64 68 65 70 0
0 75 6 74 0
